NAME : tsp_31_sol.txt
COMMENT : OR-Tools Guided Local Search
TYPE : TOUR
DIMENSION : 178
COST : 10123
STATUS : ROUTING_SUCCESS
GAP : 0.00% (Reference Solution)
TOUR_SECTION
1
76
15
66
50
110
122
63
138
23
32
22
91
60
116
174
175
29
11
46
77
3
109
169
147
74
148
82
144
38
143
94
25
69
130
14
149
30
86
165
89
81
108
151
156
13
8
172
62
158
84
36
93
21
56
26
163
102
97
135
127
146
47
92
134
173
132
87
118
98
126
157
150
78
142
27
80
72
53
133
121
106
166
104
5
113
105
90
57
153
155
70
55
176
2
37
58
51
88
103
19
33
85
145
18
16
139
44
40
123
52
154
35
71
115
6
107
112
83
160
164
136
42
167
170
178
68
124
159
20
64
67
4
96
101
117
39
161
120
10
12
54
140
24
168
17
7
9
171
48
100
31
114
73
137
119
129
111
162
79
41
128
99
152
141
95
43
28
61
59
131
177
34
125
65
45
75
49
-1
